50 8
312 228
367 654
218 146
224 220
564 896
889 524
735 790
139 119
214 83
625 221
153 248
337 317
119 171
817 730
121 233
632 437
738 110
359 54
694 210
837 276
559 920
831 413
954 384
106 988
262 277
926 503
293 194
213 498
185 458
147 337
282 112
184 372
756 165
672 681
137 315
194 116
169 117
751 621
400 202
825 381
857 317
618 660
490 395
403 679
733 63
500 667
483 857
330 58
169 118
808 323
